PARAMETER_FILE = even/even_uncomplete_graph_new/de/par/random191.par
PROBLEM_FILE = even/even_uncomplete_graph_new/de/mat/random191.tsp
Successes/Runs = 0/10
Cost.min = 1050, Cost.avg = 1050.00, Cost.max = 1050
Gap.min = 0.0000%, Gap.avg = 0.0000%, Gap.max = 0.0000%
Trials.min = 1000, Trials.avg = 1000.0, Trials.max = 1000
Time.min = 4.38 sec., Time.avg = 4.76 sec., Time.max = 5.22 sec.
Time.total = 47.73 sec.
请按任意键继续. . . 
